Route #1: 19 54 29 30 2 34 20
Route #2: 5 45 27 59 24 8
Route #3: 26 25 60 61 7
Route #4: 16 42 41 3 48 36 49 13
Route #5: 52 18 1 46 43 31 38 9
Route #6: 10 39 23 4 47 62 57 51 35
Route #7: 53 50 17 37 6 12
Route #8: 11 33 44 15 56
Route #9: 21 40 14 58 32 55 22 28
Cost 1618
Time 0.174286
